p wcnf 104 126 127 
1 24 -56 0 
1 33 98 0 
1 -20 -10 0 
1 24 8 0 
1 50 -56 0 
1 24 67 0 
1 -103 -7 0 
1 89 -66 0 
1 -15 -38 0 
1 -78 42 0 
1 -2 -67 0 
1 -10 -25 0 
1 23 71 0 
1 -77 -24 0 
1 99 62 0 
1 -70 22 0 
1 14 23 0 
1 24 91 0 
1 70 53 0 
1 19 -98 0 
1 52 43 0 
1 81 -9 0 
1 -21 53 0 
1 54 -67 0 
1 -101 -88 0 
1 -24 69 0 
1 -99 13 0 
1 -1 80 0 
1 -68 48 0 
1 49 -11 0 
1 -102 26 0 
1 -22 -46 0 
1 69 22 0 
1 59 -53 0 
1 104 -73 0 
1 -60 -56 0 
1 24 102 0 
1 -44 -15 0 
1 -54 -17 0 
1 104 -76 0 
1 35 -65 0 
1 -67 -19 0 
1 -44 66 0 
1 3 -28 0 
1 8 95 0 
1 -63 -79 0 
1 -100 5 0 
1 -40 -57 0 
1 -23 -73 0 
1 10 -56 0 
1 73 -80 0 
1 98 91 0 
1 -22 21 0 
1 26 46 0 
1 7 -29 0 
1 -42 53 0 
1 -2 97 0 
1 -12 103 0 
1 -77 29 0 
1 58 -17 0 
1 -18 -97 0 
1 -57 -93 0 
1 -17 74 0 
1 68 30 0 
1 64 98 0 
1 -99 -48 0 
1 72 94 0 
1 101 58 0 
1 26 -88 0 
1 91 103 0 
1 -30 104 0 
1 53 -24 0 
1 -21 -46 0 
1 67 -74 0 
1 80 -86 0 
1 81 -13 0 
1 -60 -24 0 
1 3 66 0 
1 -39 -19 0 
1 -4 -96 0 
1 1 51 0 
1 -84 98 0 
1 -38 55 0 
1 103 -100 0 
1 50 -17 0 
1 35 -47 0 
1 36 4 0 
1 26 -83 0 
1 7 -102 0 
1 2 -11 0 
1 35 -102 0 
1 -43 -12 0 
1 -7 -62 0 
1 -16 -23 0 
1 51 -15 0 
1 77 -17 0 
1 -15 52 0 
1 8 98 0 
1 19 -97 0 
1 18 -9 0 
1 -89 16 0 
1 -41 -83 0 
1 -8 -54 0 
1 -100 -104 0 
1 -22 14 0 
1 32 64 0 
1 20 -101 0 
1 -57 -97 0 
1 30 78 0 
1 -46 49 0 
1 75 -78 0 
1 64 -28 0 
1 -78 39 0 
1 5 57 0 
1 -4 -24 0 
1 -4 12 0 
1 29 26 0 
1 -99 7 0 
1 -58 74 0 
1 92 -91 0 
1 -4 -31 0 
1 3 -34 0 
1 64 58 0 
1 17 -101 0 
1 4 -74 0 
1 -45 53 0 
